1
95
98
12
71
27
61
35
94
57
34
7
84
58
52
54
43
89
87
60
74
66
4
83
6
15
33
64
14
42
2
13
78
17
45
36
96
92
19
44
41
18
24
77
16
50
55
22
23
88
37
72
65
79
81
47
56
100
26
69
62
5
67
40
39
70
53
73
85
93
11
3
28
91
97
99
8
29
32
59
76
90
21
86
49
30
75
80
20
38
46
25
9
68
10
82
48
31
63
51
1
